c 
p cnf 113 189
19 -5 21 0
19 -5 -21 0
18 22 23 0
18 22 -23 0
18 -22 23 0
18 -22 -23 0
16 -4 24 0
-24 -7 25 0
-25 -9 -8 0
-17 1 26 0
-26 -20 27 0
-27 19 8 0
-2 14 28 0
-28 15 -13 0
14 -3 29 0
-29 4 -1 0
-5 -7 -9 0
-15 -18 30 0
-30 6 31 0
-31 10 -16 0
-2 32 33 0
-2 32 -33 0
-2 -32 33 0
-2 -32 -33 0
-17 5 34 0
-34 -16 35 0
-35 -1 6 0
-2 -9 14 0
-12 20 19 0
-16 -1 36 0
-36 -8 37 0
-37 -9 -13 0
-14 38 39 0
-14 38 -39 0
-14 -38 39 0
-14 -38 -39 0
19 14 40 0
-40 9 10 0
18 41 42 0
18 41 -42 0
18 -41 42 0
18 -41 -42 0
-2 15 43 0
-43 -5 -12 0
13 -6 44 0
13 -6 -44 0
-18 7 45 0
-18 7 -45 0
-4 46 47 0
-4 46 -47 0
-4 -46 47 0
-4 -46 -47 0
-13 19 -11 0
11 -2 48 0
-48 20 49 0
-49 14 18 0
1 13 50 0
-50 -8 4 0
-2 51 52 0
-2 51 -52 0
-2 -51 52 0
-2 -51 -52 0
-2 14 -13 0
-5 18 53 0
-53 14 54 0
-54 1 -9 0
16 13 55 0
-55 -8 1 0
-1 56 57 0
-1 56 -57 0
-1 -56 57 0
-1 -56 -57 0
9 16 19 0
17 58 59 0
17 58 -59 0
17 -58 59 0
17 -58 -59 0
12 -16 60 0
12 -16 -60 0
7 12 -10 0
10 61 62 0
10 61 -62 0
10 -61 62 0
10 -61 -62 0
12 63 64 0
12 63 -64 0
12 -63 64 0
12 -63 -64 0
14 19 -2 0
-2 65 66 0
-2 65 -66 0
-2 -65 66 0
-2 -65 -66 0
-15 67 68 0
-15 67 -68 0
-15 -67 68 0
-15 -67 -68 0
-4 -12 69 0
-4 -12 -69 0
-10 -19 70 0
-70 11 71 0
-71 16 15 0
3 -8 15 0
10 4 -11 0
-8 4 11 0
-5 17 72 0
-5 17 -72 0
3 17 73 0
3 17 -73 0
-15 -19 74 0
-15 -19 -74 0
-1 -19 75 0
-1 -19 -75 0
-8 -10 76 0
-8 -10 -76 0
6 16 77 0
6 16 -77 0
-16 17 78 0
-78 1 4 0
2 8 79 0
-79 10 12 0
14 -18 80 0
-80 -6 81 0
-81 -16 2 0
6 5 3 0
2 1 -10 0
6 82 83 0
6 82 -83 0
6 -82 83 0
6 -82 -83 0
-15 9 84 0
-15 9 -84 0
14 15 85 0
-85 -2 12 0
7 6 86 0
-86 5 87 0
-87 -12 13 0
-13 10 88 0
-88 1 89 0
-89 -3 -12 0
-15 2 -17 0
-7 -5 90 0
-7 -5 -90 0
-18 -3 91 0
-91 -4 -9 0
-3 -8 92 0
-92 9 10 0
-3 13 93 0
-93 7 94 0
-94 20 8 0
-14 -5 95 0
-95 18 19 0
-9 20 -18 0
-19 9 96 0
-19 9 -96 0
18 -13 -16 0
-5 6 97 0
-97 18 98 0
-98 -17 -19 0
-9 -6 -16 0
-5 -17 99 0
-99 19 100 0
-100 -13 10 0
-18 16 101 0
-101 -8 102 0
-102 13 -14 0
18 103 104 0
18 103 -104 0
18 -103 104 0
18 -103 -104 0
-5 -18 105 0
-5 -18 -105 0
8 -13 106 0
-106 15 6 0
-14 -18 107 0
-14 -18 -107 0
-14 108 109 0
-14 108 -109 0
-14 -108 109 0
-14 -108 -109 0
-10 110 111 0
-10 110 -111 0
-10 -110 111 0
-10 -110 -111 0
-14 6 112 0
-14 6 -112 0
-9 -15 -5 0
-6 15 113 0
-6 15 -113 0
